language Essence 1.3

letting class be function(1 --> 3, 2 --> 3, 3 --> 2, 4 --> 3, 5 --> 1, 6 --> 3, 7 --> 1)
letting deck_length be 26
letting deck_width be 41
letting length be function(1 --> 7, 2 --> 11, 3 --> 22, 4 --> 1, 5 --> 1, 6 --> 1, 7 --> 1)
letting n_classes be 3
letting n_containers be 7
letting separation be function({1, 3} --> 1, {2, 3} --> 36)
letting width be function(1 --> 20, 2 --> 2, 3 --> 2, 4 --> 3, 5 --> 2, 6 --> 1, 7 --> 1)
